p cnf 409 1460
c p weight 40 -1 0
c p weight -40 1 0
c p weight 42 6.12323399573676603586882014729198302312846062338790031898128063403419218957424163818359375E-17 0
c p weight -42 1 0
c p weight 43 1 0
c p weight -43 1 0
c p weight 44 -1 0
c p weight -44 1 0
c p weight 46 -1 0
c p weight -46 1 0
c p weight 47 -1 0
c p weight -47 1 0
c p weight 49 -1 0
c p weight -49 1 0
c p weight 51 6.12323399573676603586882014729198302312846062338790031898128063403419218957424163818359375E-17 0
c p weight -51 1 0
c p weight 52 1 0
c p weight -52 1 0
c p weight 53 -1 0
c p weight -53 1 0
c p weight 55 -1 0
c p weight -55 1 0
c p weight 56 -1 0
c p weight -56 1 0
c p weight 58 -1 0
c p weight -58 1 0
c p weight 60 6.12323399573676603586882014729198302312846062338790031898128063403419218957424163818359375E-17 0
c p weight -60 1 0
c p weight 61 1 0
c p weight -61 1 0
c p weight 62 -1 0
c p weight -62 1 0
c p weight 64 -1 0
c p weight -64 1 0
c p weight 66 -1 0
c p weight -66 1 0
c p weight 68 6.12323399573676603586882014729198302312846062338790031898128063403419218957424163818359375E-17 0
c p weight -68 1 0
c p weight 69 1 0
c p weight -69 1 0
c p weight 70 -1 0
c p weight -70 1 0
c p weight 72 -1 0
c p weight -72 1 0
c p weight 73 -1 0
c p weight -73 1 0
c p weight 75 -1 0
c p weight -75 1 0
c p weight 77 6.12323399573676603586882014729198302312846062338790031898128063403419218957424163818359375E-17 0
c p weight -77 1 0
c p weight 78 1 0
c p weight -78 1 0
c p weight 79 -1 0
c p weight -79 1 0
c p weight 81 -1 0
c p weight -81 1 0
c p weight 83 -1 0
c p weight -83 1 0
c p weight 85 6.12323399573676603586882014729198302312846062338790031898128063403419218957424163818359375E-17 0
c p weight -85 1 0
c p weight 86 1 0
c p weight -86 1 0
c p weight 87 -1 0
c p weight -87 1 0
c p weight 89 -1 0
c p weight -89 1 0
c p weight 90 -1 0
c p weight -90 1 0
c p weight 92 -1 0
c p weight -92 1 0
c p weight 94 6.12323399573676603586882014729198302312846062338790031898128063403419218957424163818359375E-17 0
c p weight -94 1 0
c p weight 95 1 0
c p weight -95 1 0
c p weight 96 -1 0
c p weight -96 1 0
c p weight 98 -1 0
c p weight -98 1 0
c p weight 99 -1 0
c p weight -99 1 0
c p weight 101 -1 0
c p weight -101 1 0
c p weight 103 6.12323399573676603586882014729198302312846062338790031898128063403419218957424163818359375E-17 0
c p weight -103 1 0
c p weight 104 1 0
c p weight -104 1 0
c p weight 105 -1 0
c p weight -105 1 0
c p weight 107 -1 0
c p weight -107 1 0
c p weight 109 -1 0
c p weight -109 1 0
c p weight 111 6.12323399573676603586882014729198302312846062338790031898128063403419218957424163818359375E-17 0
c p weight -111 1 0
c p weight 112 1 0
c p weight -112 1 0
c p weight 113 -1 0
c p weight -113 1 0
c p weight 115 -1 0
c p weight -115 1 0
c p weight 116 -1 0
c p weight -116 1 0
c p weight 118 -1 0
c p weight -118 1 0
c p weight 120 6.12323399573676603586882014729198302312846062338790031898128063403419218957424163818359375E-17 0
c p weight -120 1 0
c p weight 121 1 0
c p weight -121 1 0
c p weight 122 -1 0
c p weight -122 1 0
c p weight 124 -1 0
c p weight -124 1 0
c p weight 125 -1 0
c p weight -125 1 0
c p weight 127 -1 0
c p weight -127 1 0
c p weight 129 6.12323399573676603586882014729198302312846062338790031898128063403419218957424163818359375E-17 0
c p weight -129 1 0
c p weight 130 1 0
c p weight -130 1 0
c p weight 131 -1 0
c p weight -131 1 0
c p weight 133 -1 0
c p weight -133 1 0
c p weight 135 -1 0
c p weight -135 1 0
c p weight 137 6.12323399573676603586882014729198302312846062338790031898128063403419218957424163818359375E-17 0
c p weight -137 1 0
c p weight 138 1 0
c p weight -138 1 0
c p weight 139 -1 0
c p weight -139 1 0
c p weight 141 -1 0
c p weight -141 1 0
c p weight 142 -1 0
c p weight -142 1 0
c p weight 144 -1 0
c p weight -144 1 0
c p weight 146 6.12323399573676603586882014729198302312846062338790031898128063403419218957424163818359375E-17 0
c p weight -146 1 0
c p weight 147 1 0
c p weight -147 1 0
c p weight 148 -1 0
c p weight -148 1 0
c p weight 150 -1 0
c p weight -150 1 0
c p weight 151 -1 0
c p weight -151 1 0
c p weight 153 -1 0
c p weight -153 1 0
c p weight 155 6.12323399573676603586882014729198302312846062338790031898128063403419218957424163818359375E-17 0
c p weight -155 1 0
c p weight 156 1 0
c p weight -156 1 0
c p weight 157 -1 0
c p weight -157 1 0
c p weight 159 -1 0
c p weight -159 1 0
c p weight 161 -1 0
c p weight -161 1 0
c p weight 163 6.12323399573676603586882014729198302312846062338790031898128063403419218957424163818359375E-17 0
c p weight -163 1 0
c p weight 164 1 0
c p weight -164 1 0
c p weight 165 -1 0
c p weight -165 1 0
c p weight 167 -1 0
c p weight -167 1 0
c p weight 169 -1 0
c p weight -169 1 0
c p weight 171 6.12323399573676603586882014729198302312846062338790031898128063403419218957424163818359375E-17 0
c p weight -171 1 0
c p weight 172 1 0
c p weight -172 1 0
c p weight 173 -1 0
c p weight -173 1 0
c p weight 175 -1 0
c p weight -175 1 0
c p weight 176 -1 0
c p weight -176 1 0
c p weight 178 -1 0
c p weight -178 1 0
c p weight 180 6.12323399573676603586882014729198302312846062338790031898128063403419218957424163818359375E-17 0
c p weight -180 1 0
c p weight 181 1 0
c p weight -181 1 0
c p weight 182 -1 0
c p weight -182 1 0
c p weight 184 -1 0
c p weight -184 1 0
c p weight 186 -1 0
c p weight -186 1 0
c p weight 188 6.12323399573676603586882014729198302312846062338790031898128063403419218957424163818359375E-17 0
c p weight -188 1 0
c p weight 189 1 0
c p weight -189 1 0
c p weight 190 -1 0
c p weight -190 1 0
c p weight 192 -1 0
c p weight -192 1 0
c p weight 193 -1 0
c p weight -193 1 0
c p weight 195 -1 0
c p weight -195 1 0
c p weight 197 6.12323399573676603586882014729198302312846062338790031898128063403419218957424163818359375E-17 0
c p weight -197 1 0
c p weight 198 1 0
c p weight -198 1 0
c p weight 199 -1 0
c p weight -199 1 0
c p weight 201 -1 0
c p weight -201 1 0
c p weight 204 -1 0
c p weight -204 1 0
c p weight 205 -1 0
c p weight -205 1 0
c p weight 207 -1 0
c p weight -207 1 0
c p weight 209 6.12323399573676603586882014729198302312846062338790031898128063403419218957424163818359375E-17 0
c p weight -209 1 0
c p weight 210 1 0
c p weight -210 1 0
c p weight 211 -1 0
c p weight -211 1 0
c p weight 213 -1 0
c p weight -213 1 0
c p weight 216 -1 0
c p weight -216 1 0
c p weight 217 -1 0
c p weight -217 1 0
c p weight 219 -1 0
c p weight -219 1 0
c p weight 221 6.12323399573676603586882014729198302312846062338790031898128063403419218957424163818359375E-17 0
c p weight -221 1 0
c p weight 222 1 0
c p weight -222 1 0
c p weight 223 -1 0
c p weight -223 1 0
c p weight 225 -1 0
c p weight -225 1 0
c p weight 228 -1 0
c p weight -228 1 0
c p weight 230 -1 0
c p weight -230 1 0
c p weight 232 6.12323399573676603586882014729198302312846062338790031898128063403419218957424163818359375E-17 0
c p weight -232 1 0
c p weight 233 1 0
c p weight -233 1 0
c p weight 234 -1 0
c p weight -234 1 0
c p weight 236 -1 0
c p weight -236 1 0
c p weight 239 -1 0
c p weight -239 1 0
c p weight 240 -1 0
c p weight -240 1 0
c p weight 242 -1 0
c p weight -242 1 0
c p weight 244 6.12323399573676603586882014729198302312846062338790031898128063403419218957424163818359375E-17 0
c p weight -244 1 0
c p weight 245 1 0
c p weight -245 1 0
c p weight 246 -1 0
c p weight -246 1 0
c p weight 248 -1 0
c p weight -248 1 0
c p weight 251 -1 0
c p weight -251 1 0
c p weight 253 -1 0
c p weight -253 1 0
c p weight 255 6.12323399573676603586882014729198302312846062338790031898128063403419218957424163818359375E-17 0
c p weight -255 1 0
c p weight 256 1 0
c p weight -256 1 0
c p weight 257 -1 0
c p weight -257 1 0
c p weight 259 -1 0
c p weight -259 1 0
c p weight 262 -1 0
c p weight -262 1 0
c p weight 263 -1 0
c p weight -263 1 0
c p weight 265 -1 0
c p weight -265 1 0
c p weight 267 6.12323399573676603586882014729198302312846062338790031898128063403419218957424163818359375E-17 0
c p weight -267 1 0
c p weight 268 1 0
c p weight -268 1 0
c p weight 269 -1 0
c p weight -269 1 0
c p weight 271 -1 0
c p weight -271 1 0
c p weight 274 -1 0
c p weight -274 1 0
c p weight 275 -1 0
c p weight -275 1 0
c p weight 277 -1 0
c p weight -277 1 0
c p weight 279 6.12323399573676603586882014729198302312846062338790031898128063403419218957424163818359375E-17 0
c p weight -279 1 0
c p weight 280 1 0
c p weight -280 1 0
c p weight 281 -1 0
c p weight -281 1 0
c p weight 283 -1 0
c p weight -283 1 0
c p weight 286 -1 0
c p weight -286 1 0
c p weight 288 -1 0
c p weight -288 1 0
c p weight 290 6.12323399573676603586882014729198302312846062338790031898128063403419218957424163818359375E-17 0
c p weight -290 1 0
c p weight 291 1 0
c p weight -291 1 0
c p weight 292 -1 0
c p weight -292 1 0
c p weight 294 -1 0
c p weight -294 1 0
c p weight 297 -1 0
c p weight -297 1 0
c p weight 298 -1 0
c p weight -298 1 0
c p weight 300 -1 0
c p weight -300 1 0
c p weight 302 6.12323399573676603586882014729198302312846062338790031898128063403419218957424163818359375E-17 0
c p weight -302 1 0
c p weight 303 1 0
c p weight -303 1 0
c p weight 304 -1 0
c p weight -304 1 0
c p weight 306 -1 0
c p weight -306 1 0
c p weight 309 -1 0
c p weight -309 1 0
c p weight 310 -1 0
c p weight -310 1 0
c p weight 312 -1 0
c p weight -312 1 0
c p weight 314 6.12323399573676603586882014729198302312846062338790031898128063403419218957424163818359375E-17 0
c p weight -314 1 0
c p weight 315 1 0
c p weight -315 1 0
c p weight 316 -1 0
c p weight -316 1 0
c p weight 318 -1 0
c p weight -318 1 0
c p weight 321 -1 0
c p weight -321 1 0
c p weight 323 -1 0
c p weight -323 1 0
c p weight 325 6.12323399573676603586882014729198302312846062338790031898128063403419218957424163818359375E-17 0
c p weight -325 1 0
c p weight 326 1 0
c p weight -326 1 0
c p weight 327 -1 0
c p weight -327 1 0
c p weight 329 -1 0
c p weight -329 1 0
c p weight 332 -1 0
c p weight -332 1 0
c p weight 333 -1 0
c p weight -333 1 0
c p weight 335 -1 0
c p weight -335 1 0
c p weight 337 6.12323399573676603586882014729198302312846062338790031898128063403419218957424163818359375E-17 0
c p weight -337 1 0
c p weight 338 1 0
c p weight -338 1 0
c p weight 339 -1 0
c p weight -339 1 0
c p weight 341 -1 0
c p weight -341 1 0
c p weight 344 -1 0
c p weight -344 1 0
c p weight 345 -1 0
c p weight -345 1 0
c p weight 347 -1 0
c p weight -347 1 0
c p weight 349 6.12323399573676603586882014729198302312846062338790031898128063403419218957424163818359375E-17 0
c p weight -349 1 0
c p weight 350 1 0
c p weight -350 1 0
c p weight 351 -1 0
c p weight -351 1 0
c p weight 353 -1 0
c p weight -353 1 0
c p weight 356 -1 0
c p weight -356 1 0
c p weight 358 -1 0
c p weight -358 1 0
c p weight 360 6.12323399573676603586882014729198302312846062338790031898128063403419218957424163818359375E-17 0
c p weight -360 1 0
c p weight 361 1 0
c p weight -361 1 0
c p weight 362 -1 0
c p weight -362 1 0
c p weight 364 -1 0
c p weight -364 1 0
c p weight 367 -1 0
c p weight -367 1 0
c p weight 369 -1 0
c p weight -369 1 0
c p weight 371 6.12323399573676603586882014729198302312846062338790031898128063403419218957424163818359375E-17 0
c p weight -371 1 0
c p weight 372 1 0
c p weight -372 1 0
c p weight 373 -1 0
c p weight -373 1 0
c p weight 375 -1 0
c p weight -375 1 0
c p weight 378 -1 0
c p weight -378 1 0
c p weight 379 -1 0
c p weight -379 1 0
c p weight 381 -1 0
c p weight -381 1 0
c p weight 383 6.12323399573676603586882014729198302312846062338790031898128063403419218957424163818359375E-17 0
c p weight -383 1 0
c p weight 384 1 0
c p weight -384 1 0
c p weight 385 -1 0
c p weight -385 1 0
c p weight 387 -1 0
c p weight -387 1 0
c p weight 390 -1 0
c p weight -390 1 0
c p weight 392 -1 0
c p weight -392 1 0
c p weight 394 6.12323399573676603586882014729198302312846062338790031898128063403419218957424163818359375E-17 0
c p weight -394 1 0
c p weight 395 1 0
c p weight -395 1 0
c p weight 396 -1 0
c p weight -396 1 0
c p weight 398 -1 0
c p weight -398 1 0
c p weight 401 -1 0
c p weight -401 1 0
c p weight 403 -1 0
c p weight -403 1 0
c p weight 405 6.12323399573676603586882014729198302312846062338790031898128063403419218957424163818359375E-17 0
c p weight -405 1 0
c p weight 406 1 0
c p weight -406 1 0
c p weight 407 -1 0
c p weight -407 1 0
c p weight 409 -1 0
c p weight -409 1 0
-37 0
-35 0
-33 0
-31 0
-29 0
-27 0
-25 0
-23 0
-21 0
-19 0
-17 0
-15 0
-13 0
-11 0
-9 0
-7 0
-5 0
-3 0
-1 0
39 1 -2 0
39 -1 2 0
-39 1 2 0
-39 -1 -2 0
-40 1 0
-40 2 0
40 -1 -2 0
41 -1 39 0
-41 1 39 0
-42 39 0
41 -42 -1 0
-41 -42 1 0
41 42 1 -39 0
-41 42 -1 -39 0
-43 39 0
41 -43 1 0
-41 -43 -1 0
41 43 -1 -39 0
-41 43 1 -39 0
-44 41 0
-44 39 0
-44 -1 0
44 -41 1 -39 0
45 41 -39 0
45 -41 39 0
-45 41 39 0
-45 -41 -39 0
-46 41 0
-46 39 0
46 -41 -39 0
47 -45 0
-47 45 0
48 3 -4 0
48 -3 4 0
-48 3 4 0
-48 -3 -4 0
-49 3 0
-49 4 0
49 -3 -4 0
50 -3 48 0
-50 3 48 0
-51 48 0
50 -51 -3 0
-50 -51 3 0
50 51 3 -48 0
-50 51 -3 -48 0
-52 48 0
50 -52 3 0
-50 -52 -3 0
50 52 -3 -48 0
-50 52 3 -48 0
-53 50 0
-53 48 0
-53 -3 0
53 -50 3 -48 0
54 50 -48 0
54 -50 48 0
-54 50 48 0
-54 -50 -48 0
-55 50 0
-55 48 0
55 -50 -48 0
56 -54 0
-56 54 0
57 5 -6 0
57 -5 6 0
-57 5 6 0
-57 -5 -6 0
-58 5 0
-58 6 0
58 -5 -6 0
59 -5 57 0
-59 5 57 0
-60 57 0
59 -60 -5 0
-59 -60 5 0
59 60 5 -57 0
-59 60 -5 -57 0
-61 57 0
59 -61 5 0
-59 -61 -5 0
59 61 -5 -57 0
-59 61 5 -57 0
-62 59 0
-62 57 0
-62 -5 0
62 -59 5 -57 0
63 59 -57 0
63 -59 57 0
-63 59 57 0
-63 -59 -57 0
-64 59 0
-64 57 0
64 -59 -57 0
65 7 -8 0
65 -7 8 0
-65 7 8 0
-65 -7 -8 0
-66 7 0
-66 8 0
66 -7 -8 0
67 -7 65 0
-67 7 65 0
-68 65 0
67 -68 -7 0
-67 -68 7 0
67 68 7 -65 0
-67 68 -7 -65 0
-69 65 0
67 -69 7 0
-67 -69 -7 0
67 69 -7 -65 0
-67 69 7 -65 0
-70 67 0
-70 65 0
-70 -7 0
70 -67 7 -65 0
71 67 -65 0
71 -67 65 0
-71 67 65 0
-71 -67 -65 0
-72 67 0
-72 65 0
72 -67 -65 0
73 -71 0
-73 71 0
74 9 -10 0
74 -9 10 0
-74 9 10 0
-74 -9 -10 0
-75 9 0
-75 10 0
75 -9 -10 0
76 -9 74 0
-76 9 74 0
-77 74 0
76 -77 -9 0
-76 -77 9 0
76 77 9 -74 0
-76 77 -9 -74 0
-78 74 0
76 -78 9 0
-76 -78 -9 0
76 78 -9 -74 0
-76 78 9 -74 0
-79 76 0
-79 74 0
-79 -9 0
79 -76 9 -74 0
80 76 -74 0
80 -76 74 0
-80 76 74 0
-80 -76 -74 0
-81 76 0
-81 74 0
81 -76 -74 0
82 11 -12 0
82 -11 12 0
-82 11 12 0
-82 -11 -12 0
-83 11 0
-83 12 0
83 -11 -12 0
84 -11 82 0
-84 11 82 0
-85 82 0
84 -85 -11 0
-84 -85 11 0
84 85 11 -82 0
-84 85 -11 -82 0
-86 82 0
84 -86 11 0
-84 -86 -11 0
84 86 -11 -82 0
-84 86 11 -82 0
-87 84 0
-87 82 0
-87 -11 0
87 -84 11 -82 0
88 84 -82 0
88 -84 82 0
-88 84 82 0
-88 -84 -82 0
-89 84 0
-89 82 0
89 -84 -82 0
90 -88 0
-90 88 0
91 13 -14 0
91 -13 14 0
-91 13 14 0
-91 -13 -14 0
-92 13 0
-92 14 0
92 -13 -14 0
93 -13 91 0
-93 13 91 0
-94 91 0
93 -94 -13 0
-93 -94 13 0
93 94 13 -91 0
-93 94 -13 -91 0
-95 91 0
93 -95 13 0
-93 -95 -13 0
93 95 -13 -91 0
-93 95 13 -91 0
-96 93 0
-96 91 0
-96 -13 0
96 -93 13 -91 0
97 93 -91 0
97 -93 91 0
-97 93 91 0
-97 -93 -91 0
-98 93 0
-98 91 0
98 -93 -91 0
99 -97 0
-99 97 0
100 15 -16 0
100 -15 16 0
-100 15 16 0
-100 -15 -16 0
-101 15 0
-101 16 0
101 -15 -16 0
102 -15 100 0
-102 15 100 0
-103 100 0
102 -103 -15 0
-102 -103 15 0
102 103 15 -100 0
-102 103 -15 -100 0
-104 100 0
102 -104 15 0
-102 -104 -15 0
102 104 -15 -100 0
-102 104 15 -100 0
-105 102 0
-105 100 0
-105 -15 0
105 -102 15 -100 0
106 102 -100 0
106 -102 100 0
-106 102 100 0
-106 -102 -100 0
-107 102 0
-107 100 0
107 -102 -100 0
108 17 -18 0
108 -17 18 0
-108 17 18 0
-108 -17 -18 0
-109 17 0
-109 18 0
109 -17 -18 0
110 -17 108 0
-110 17 108 0
-111 108 0
110 -111 -17 0
-110 -111 17 0
110 111 17 -108 0
-110 111 -17 -108 0
-112 108 0
110 -112 17 0
-110 -112 -17 0
110 112 -17 -108 0
-110 112 17 -108 0
-113 110 0
-113 108 0
-113 -17 0
113 -110 17 -108 0
114 110 -108 0
114 -110 108 0
-114 110 108 0
-114 -110 -108 0
-115 110 0
-115 108 0
115 -110 -108 0
116 -114 0
-116 114 0
117 19 -20 0
117 -19 20 0
-117 19 20 0
-117 -19 -20 0
-118 19 0
-118 20 0
118 -19 -20 0
119 -19 117 0
-119 19 117 0
-120 117 0
119 -120 -19 0
-119 -120 19 0
119 120 19 -117 0
-119 120 -19 -117 0
-121 117 0
119 -121 19 0
-119 -121 -19 0
119 121 -19 -117 0
-119 121 19 -117 0
-122 119 0
-122 117 0
-122 -19 0
122 -119 19 -117 0
123 119 -117 0
123 -119 117 0
-123 119 117 0
-123 -119 -117 0
-124 119 0
-124 117 0
124 -119 -117 0
125 -123 0
-125 123 0
126 21 -22 0
126 -21 22 0
-126 21 22 0
-126 -21 -22 0
-127 21 0
-127 22 0
127 -21 -22 0
128 -21 126 0
-128 21 126 0
-129 126 0
128 -129 -21 0
-128 -129 21 0
128 129 21 -126 0
-128 129 -21 -126 0
-130 126 0
128 -130 21 0
-128 -130 -21 0
128 130 -21 -126 0
-128 130 21 -126 0
-131 128 0
-131 126 0
-131 -21 0
131 -128 21 -126 0
132 128 -126 0
132 -128 126 0
-132 128 126 0
-132 -128 -126 0
-133 128 0
-133 126 0
133 -128 -126 0
134 23 -24 0
134 -23 24 0
-134 23 24 0
-134 -23 -24 0
-135 23 0
-135 24 0
135 -23 -24 0
136 -23 134 0
-136 23 134 0
-137 134 0
136 -137 -23 0
-136 -137 23 0
136 137 23 -134 0
-136 137 -23 -134 0
-138 134 0
136 -138 23 0
-136 -138 -23 0
136 138 -23 -134 0
-136 138 23 -134 0
-139 136 0
-139 134 0
-139 -23 0
139 -136 23 -134 0
140 136 -134 0
140 -136 134 0
-140 136 134 0
-140 -136 -134 0
-141 136 0
-141 134 0
141 -136 -134 0
142 -140 0
-142 140 0
143 25 -26 0
143 -25 26 0
-143 25 26 0
-143 -25 -26 0
-144 25 0
-144 26 0
144 -25 -26 0
145 -25 143 0
-145 25 143 0
-146 143 0
145 -146 -25 0
-145 -146 25 0
145 146 25 -143 0
-145 146 -25 -143 0
-147 143 0
145 -147 25 0
-145 -147 -25 0
145 147 -25 -143 0
-145 147 25 -143 0
-148 145 0
-148 143 0
-148 -25 0
148 -145 25 -143 0
149 145 -143 0
149 -145 143 0
-149 145 143 0
-149 -145 -143 0
-150 145 0
-150 143 0
150 -145 -143 0
151 -149 0
-151 149 0
152 27 -28 0
152 -27 28 0
-152 27 28 0
-152 -27 -28 0
-153 27 0
-153 28 0
153 -27 -28 0
154 -27 152 0
-154 27 152 0
-155 152 0
154 -155 -27 0
-154 -155 27 0
154 155 27 -152 0
-154 155 -27 -152 0
-156 152 0
154 -156 27 0
-154 -156 -27 0
154 156 -27 -152 0
-154 156 27 -152 0
-157 154 0
-157 152 0
-157 -27 0
157 -154 27 -152 0
158 154 -152 0
158 -154 152 0
-158 154 152 0
-158 -154 -152 0
-159 154 0
-159 152 0
159 -154 -152 0
160 29 -30 0
160 -29 30 0
-160 29 30 0
-160 -29 -30 0
-161 29 0
-161 30 0
161 -29 -30 0
162 -29 160 0
-162 29 160 0
-163 160 0
162 -163 -29 0
-162 -163 29 0
162 163 29 -160 0
-162 163 -29 -160 0
-164 160 0
162 -164 29 0
-162 -164 -29 0
162 164 -29 -160 0
-162 164 29 -160 0
-165 162 0
-165 160 0
-165 -29 0
165 -162 29 -160 0
166 162 -160 0
166 -162 160 0
-166 162 160 0
-166 -162 -160 0
-167 162 0
-167 160 0
167 -162 -160 0
168 31 -32 0
168 -31 32 0
-168 31 32 0
-168 -31 -32 0
-169 31 0
-169 32 0
169 -31 -32 0
170 -31 168 0
-170 31 168 0
-171 168 0
170 -171 -31 0
-170 -171 31 0
170 171 31 -168 0
-170 171 -31 -168 0
-172 168 0
170 -172 31 0
-170 -172 -31 0
170 172 -31 -168 0
-170 172 31 -168 0
-173 170 0
-173 168 0
-173 -31 0
173 -170 31 -168 0
174 170 -168 0
174 -170 168 0
-174 170 168 0
-174 -170 -168 0
-175 170 0
-175 168 0
175 -170 -168 0
176 -174 0
-176 174 0
177 33 -34 0
177 -33 34 0
-177 33 34 0
-177 -33 -34 0
-178 33 0
-178 34 0
178 -33 -34 0
179 -33 177 0
-179 33 177 0
-180 177 0
179 -180 -33 0
-179 -180 33 0
179 180 33 -177 0
-179 180 -33 -177 0
-181 177 0
179 -181 33 0
-179 -181 -33 0
179 181 -33 -177 0
-179 181 33 -177 0
-182 179 0
-182 177 0
-182 -33 0
182 -179 33 -177 0
183 179 -177 0
183 -179 177 0
-183 179 177 0
-183 -179 -177 0
-184 179 0
-184 177 0
184 -179 -177 0
185 35 -36 0
185 -35 36 0
-185 35 36 0
-185 -35 -36 0
-186 35 0
-186 36 0
186 -35 -36 0
187 -35 185 0
-187 35 185 0
-188 185 0
187 -188 -35 0
-187 -188 35 0
187 188 35 -185 0
-187 188 -35 -185 0
-189 185 0
187 -189 35 0
-187 -189 -35 0
187 189 -35 -185 0
-187 189 35 -185 0
-190 187 0
-190 185 0
-190 -35 0
190 -187 35 -185 0
191 187 -185 0
191 -187 185 0
-191 187 185 0
-191 -187 -185 0
-192 187 0
-192 185 0
192 -187 -185 0
193 -38 0
-193 38 0
194 37 -38 0
194 -37 38 0
-194 37 38 0
-194 -37 -38 0
-195 37 0
-195 38 0
195 -37 -38 0
196 -37 194 0
-196 37 194 0
-197 194 0
196 -197 -37 0
-196 -197 37 0
196 197 37 -194 0
-196 197 -37 -194 0
-198 194 0
196 -198 37 0
-196 -198 -37 0
196 198 -37 -194 0
-196 198 37 -194 0
-199 196 0
-199 194 0
-199 -37 0
199 -196 37 -194 0
200 196 -194 0
200 -196 194 0
-200 196 194 0
-200 -196 -194 0
-201 196 0
-201 194 0
201 -196 -194 0
202 41 -196 0
202 -41 196 0
-202 41 196 0
-202 -41 -196 0
203 45 -200 0
203 -45 200 0
-203 45 200 0
-203 -45 -200 0
-204 41 0
-204 200 0
-204 196 -45 0
-204 -196 45 0
204 -41 196 45 -200 0
204 -41 -196 -45 -200 0
205 -203 0
-205 203 0
206 41 -203 0
206 -41 203 0
-206 41 203 0
-206 -41 -203 0
-207 41 0
-207 203 0
207 -41 -203 0
208 -41 206 0
-208 41 206 0
-209 206 0
208 -209 -41 0
-208 -209 41 0
208 209 41 -206 0
-208 209 -41 -206 0
-210 206 0
208 -210 41 0
-208 -210 -41 0
208 210 -41 -206 0
-208 210 41 -206 0
-211 208 0
-211 206 0
-211 -41 0
211 -208 41 -206 0
212 208 -206 0
212 -208 206 0
-212 208 206 0
-212 -208 -206 0
-213 208 0
-213 206 0
213 -208 -206 0
214 50 -202 0
214 -50 202 0
-214 50 202 0
-214 -50 -202 0
215 54 -200 0
215 -54 200 0
-215 54 200 0
-215 -54 -200 0
-216 50 0
-216 200 0
-216 202 -54 0
-216 -202 54 0
216 -50 202 54 -200 0
216 -50 -202 -54 -200 0
217 -215 0
-217 215 0
218 50 -215 0
218 -50 215 0
-218 50 215 0
-218 -50 -215 0
-219 50 0
-219 215 0
219 -50 -215 0
220 -50 218 0
-220 50 218 0
-221 218 0
220 -221 -50 0
-220 -221 50 0
220 221 50 -218 0
-220 221 -50 -218 0
-222 218 0
220 -222 50 0
-220 -222 -50 0
220 222 -50 -218 0
-220 222 50 -218 0
-223 220 0
-223 218 0
-223 -50 0
223 -220 50 -218 0
224 220 -218 0
224 -220 218 0
-224 220 218 0
-224 -220 -218 0
-225 220 0
-225 218 0
225 -220 -218 0
226 59 -214 0
226 -59 214 0
-226 59 214 0
-226 -59 -214 0
227 63 -200 0
227 -63 200 0
-227 63 200 0
-227 -63 -200 0
-228 59 0
-228 200 0
-228 214 -63 0
-228 -214 63 0
228 -59 214 63 -200 0
228 -59 -214 -63 -200 0
229 59 -227 0
229 -59 227 0
-229 59 227 0
-229 -59 -227 0
-230 59 0
-230 227 0
230 -59 -227 0
231 -59 229 0
-231 59 229 0
-232 229 0
231 -232 -59 0
-231 -232 59 0
231 232 59 -229 0
-231 232 -59 -229 0
-233 229 0
231 -233 59 0
-231 -233 -59 0
231 233 -59 -229 0
-231 233 59 -229 0
-234 231 0
-234 229 0
-234 -59 0
234 -231 59 -229 0
235 231 -229 0
235 -231 229 0
-235 231 229 0
-235 -231 -229 0
-236 231 0
-236 229 0
236 -231 -229 0
237 67 -226 0
237 -67 226 0
-237 67 226 0
-237 -67 -226 0
238 71 -200 0
238 -71 200 0
-238 71 200 0
-238 -71 -200 0
-239 67 0
-239 200 0
-239 226 -71 0
-239 -226 71 0
239 -67 226 71 -200 0
239 -67 -226 -71 -200 0
240 -238 0
-240 238 0
241 67 -238 0
241 -67 238 0
-241 67 238 0
-241 -67 -238 0
-242 67 0
-242 238 0
242 -67 -238 0
243 -67 241 0
-243 67 241 0
-244 241 0
243 -244 -67 0
-243 -244 67 0
243 244 67 -241 0
-243 244 -67 -241 0
-245 241 0
243 -245 67 0
-243 -245 -67 0
243 245 -67 -241 0
-243 245 67 -241 0
-246 243 0
-246 241 0
-246 -67 0
246 -243 67 -241 0
247 243 -241 0
247 -243 241 0
-247 243 241 0
-247 -243 -241 0
-248 243 0
-248 241 0
248 -243 -241 0
249 76 -237 0
249 -76 237 0
-249 76 237 0
-249 -76 -237 0
250 80 -200 0
250 -80 200 0
-250 80 200 0
-250 -80 -200 0
-251 76 0
-251 200 0
-251 237 -80 0
-251 -237 80 0
251 -76 237 80 -200 0
251 -76 -237 -80 -200 0
252 76 -250 0
252 -76 250 0
-252 76 250 0
-252 -76 -250 0
-253 76 0
-253 250 0
253 -76 -250 0
254 -76 252 0
-254 76 252 0
-255 252 0
254 -255 -76 0
-254 -255 76 0
254 255 76 -252 0
-254 255 -76 -252 0
-256 252 0
254 -256 76 0
-254 -256 -76 0
254 256 -76 -252 0
-254 256 76 -252 0
-257 254 0
-257 252 0
-257 -76 0
257 -254 76 -252 0
258 254 -252 0
258 -254 252 0
-258 254 252 0
-258 -254 -252 0
-259 254 0
-259 252 0
259 -254 -252 0
260 84 -249 0
260 -84 249 0
-260 84 249 0
-260 -84 -249 0
261 88 -200 0
261 -88 200 0
-261 88 200 0
-261 -88 -200 0
-262 84 0
-262 200 0
-262 249 -88 0
-262 -249 88 0
262 -84 249 88 -200 0
262 -84 -249 -88 -200 0
263 -261 0
-263 261 0
264 84 -261 0
264 -84 261 0
-264 84 261 0
-264 -84 -261 0
-265 84 0
-265 261 0
265 -84 -261 0
266 -84 264 0
-266 84 264 0
-267 264 0
266 -267 -84 0
-266 -267 84 0
266 267 84 -264 0
-266 267 -84 -264 0
-268 264 0
266 -268 84 0
-266 -268 -84 0
266 268 -84 -264 0
-266 268 84 -264 0
-269 266 0
-269 264 0
-269 -84 0
269 -266 84 -264 0
270 266 -264 0
270 -266 264 0
-270 266 264 0
-270 -266 -264 0
-271 266 0
-271 264 0
271 -266 -264 0
272 93 -260 0
272 -93 260 0
-272 93 260 0
-272 -93 -260 0
273 97 -200 0
273 -97 200 0
-273 97 200 0
-273 -97 -200 0
-274 93 0
-274 200 0
-274 260 -97 0
-274 -260 97 0
274 -93 260 97 -200 0
274 -93 -260 -97 -200 0
275 -273 0
-275 273 0
276 93 -273 0
276 -93 273 0
-276 93 273 0
-276 -93 -273 0
-277 93 0
-277 273 0
277 -93 -273 0
278 -93 276 0
-278 93 276 0
-279 276 0
278 -279 -93 0
-278 -279 93 0
278 279 93 -276 0
-278 279 -93 -276 0
-280 276 0
278 -280 93 0
-278 -280 -93 0
278 280 -93 -276 0
-278 280 93 -276 0
-281 278 0
-281 276 0
-281 -93 0
281 -278 93 -276 0
282 278 -276 0
282 -278 276 0
-282 278 276 0
-282 -278 -276 0
-283 278 0
-283 276 0
283 -278 -276 0
284 102 -272 0
284 -102 272 0
-284 102 272 0
-284 -102 -272 0
285 106 -200 0
285 -106 200 0
-285 106 200 0
-285 -106 -200 0
-286 102 0
-286 200 0
-286 272 -106 0
-286 -272 106 0
286 -102 272 106 -200 0
286 -102 -272 -106 -200 0
287 102 -285 0
287 -102 285 0
-287 102 285 0
-287 -102 -285 0
-288 102 0
-288 285 0
288 -102 -285 0
289 -102 287 0
-289 102 287 0
-290 287 0
289 -290 -102 0
-289 -290 102 0
289 290 102 -287 0
-289 290 -102 -287 0
-291 287 0
289 -291 102 0
-289 -291 -102 0
289 291 -102 -287 0
-289 291 102 -287 0
-292 289 0
-292 287 0
-292 -102 0
292 -289 102 -287 0
293 289 -287 0
293 -289 287 0
-293 289 287 0
-293 -289 -287 0
-294 289 0
-294 287 0
294 -289 -287 0
295 110 -284 0
295 -110 284 0
-295 110 284 0
-295 -110 -284 0
296 114 -200 0
296 -114 200 0
-296 114 200 0
-296 -114 -200 0
-297 110 0
-297 200 0
-297 284 -114 0
-297 -284 114 0
297 -110 284 114 -200 0
297 -110 -284 -114 -200 0
298 -296 0
-298 296 0
299 110 -296 0
299 -110 296 0
-299 110 296 0
-299 -110 -296 0
-300 110 0
-300 296 0
300 -110 -296 0
301 -110 299 0
-301 110 299 0
-302 299 0
301 -302 -110 0
-301 -302 110 0
301 302 110 -299 0
-301 302 -110 -299 0
-303 299 0
301 -303 110 0
-301 -303 -110 0
301 303 -110 -299 0
-301 303 110 -299 0
-304 301 0
-304 299 0
-304 -110 0
304 -301 110 -299 0
305 301 -299 0
305 -301 299 0
-305 301 299 0
-305 -301 -299 0
-306 301 0
-306 299 0
306 -301 -299 0
307 119 -295 0
307 -119 295 0
-307 119 295 0
-307 -119 -295 0
308 123 -200 0
308 -123 200 0
-308 123 200 0
-308 -123 -200 0
-309 119 0
-309 200 0
-309 295 -123 0
-309 -295 123 0
309 -119 295 123 -200 0
309 -119 -295 -123 -200 0
310 -308 0
-310 308 0
311 119 -308 0
311 -119 308 0
-311 119 308 0
-311 -119 -308 0
-312 119 0
-312 308 0
312 -119 -308 0
313 -119 311 0
-313 119 311 0
-314 311 0
313 -314 -119 0
-313 -314 119 0
313 314 119 -311 0
-313 314 -119 -311 0
-315 311 0
313 -315 119 0
-313 -315 -119 0
313 315 -119 -311 0
-313 315 119 -311 0
-316 313 0
-316 311 0
-316 -119 0
316 -313 119 -311 0
317 313 -311 0
317 -313 311 0
-317 313 311 0
-317 -313 -311 0
-318 313 0
-318 311 0
318 -313 -311 0
319 128 -307 0
319 -128 307 0
-319 128 307 0
-319 -128 -307 0
320 132 -200 0
320 -132 200 0
-320 132 200 0
-320 -132 -200 0
-321 128 0
-321 200 0
-321 307 -132 0
-321 -307 132 0
321 -128 307 132 -200 0
321 -128 -307 -132 -200 0
322 128 -320 0
322 -128 320 0
-322 128 320 0
-322 -128 -320 0
-323 128 0
-323 320 0
323 -128 -320 0
324 -128 322 0
-324 128 322 0
-325 322 0
324 -325 -128 0
-324 -325 128 0
324 325 128 -322 0
-324 325 -128 -322 0
-326 322 0
324 -326 128 0
-324 -326 -128 0
324 326 -128 -322 0
-324 326 128 -322 0
-327 324 0
-327 322 0
-327 -128 0
327 -324 128 -322 0
328 324 -322 0
328 -324 322 0
-328 324 322 0
-328 -324 -322 0
-329 324 0
-329 322 0
329 -324 -322 0
330 136 -319 0
330 -136 319 0
-330 136 319 0
-330 -136 -319 0
331 140 -200 0
331 -140 200 0
-331 140 200 0
-331 -140 -200 0
-332 136 0
-332 200 0
-332 319 -140 0
-332 -319 140 0
332 -136 319 140 -200 0
332 -136 -319 -140 -200 0
333 -331 0
-333 331 0
334 136 -331 0
334 -136 331 0
-334 136 331 0
-334 -136 -331 0
-335 136 0
-335 331 0
335 -136 -331 0
336 -136 334 0
-336 136 334 0
-337 334 0
336 -337 -136 0
-336 -337 136 0
336 337 136 -334 0
-336 337 -136 -334 0
-338 334 0
336 -338 136 0
-336 -338 -136 0
336 338 -136 -334 0
-336 338 136 -334 0
-339 336 0
-339 334 0
-339 -136 0
339 -336 136 -334 0
340 336 -334 0
340 -336 334 0
-340 336 334 0
-340 -336 -334 0
-341 336 0
-341 334 0
341 -336 -334 0
342 145 -330 0
342 -145 330 0
-342 145 330 0
-342 -145 -330 0
343 149 -200 0
343 -149 200 0
-343 149 200 0
-343 -149 -200 0
-344 145 0
-344 200 0
-344 330 -149 0
-344 -330 149 0
344 -145 330 149 -200 0
344 -145 -330 -149 -200 0
345 -343 0
-345 343 0
346 145 -343 0
346 -145 343 0
-346 145 343 0
-346 -145 -343 0
-347 145 0
-347 343 0
347 -145 -343 0
348 -145 346 0
-348 145 346 0
-349 346 0
348 -349 -145 0
-348 -349 145 0
348 349 145 -346 0
-348 349 -145 -346 0
-350 346 0
348 -350 145 0
-348 -350 -145 0
348 350 -145 -346 0
-348 350 145 -346 0
-351 348 0
-351 346 0
-351 -145 0
351 -348 145 -346 0
352 348 -346 0
352 -348 346 0
-352 348 346 0
-352 -348 -346 0
-353 348 0
-353 346 0
353 -348 -346 0
354 154 -342 0
354 -154 342 0
-354 154 342 0
-354 -154 -342 0
355 158 -200 0
355 -158 200 0
-355 158 200 0
-355 -158 -200 0
-356 154 0
-356 200 0
-356 342 -158 0
-356 -342 158 0
356 -154 342 158 -200 0
356 -154 -342 -158 -200 0
357 154 -355 0
357 -154 355 0
-357 154 355 0
-357 -154 -355 0
-358 154 0
-358 355 0
358 -154 -355 0
359 -154 357 0
-359 154 357 0
-360 357 0
359 -360 -154 0
-359 -360 154 0
359 360 154 -357 0
-359 360 -154 -357 0
-361 357 0
359 -361 154 0
-359 -361 -154 0
359 361 -154 -357 0
-359 361 154 -357 0
-362 359 0
-362 357 0
-362 -154 0
362 -359 154 -357 0
363 359 -357 0
363 -359 357 0
-363 359 357 0
-363 -359 -357 0
-364 359 0
-364 357 0
364 -359 -357 0
365 162 -354 0
365 -162 354 0
-365 162 354 0
-365 -162 -354 0
366 166 -200 0
366 -166 200 0
-366 166 200 0
-366 -166 -200 0
-367 162 0
-367 200 0
-367 354 -166 0
-367 -354 166 0
367 -162 354 166 -200 0
367 -162 -354 -166 -200 0
368 162 -366 0
368 -162 366 0
-368 162 366 0
-368 -162 -366 0
-369 162 0
-369 366 0
369 -162 -366 0
370 -162 368 0
-370 162 368 0
-371 368 0
370 -371 -162 0
-370 -371 162 0
370 371 162 -368 0
-370 371 -162 -368 0
-372 368 0
370 -372 162 0
-370 -372 -162 0
370 372 -162 -368 0
-370 372 162 -368 0
-373 370 0
-373 368 0
-373 -162 0
373 -370 162 -368 0
374 370 -368 0
374 -370 368 0
-374 370 368 0
-374 -370 -368 0
-375 370 0
-375 368 0
375 -370 -368 0
376 170 -365 0
376 -170 365 0
-376 170 365 0
-376 -170 -365 0
377 174 -200 0
377 -174 200 0
-377 174 200 0
-377 -174 -200 0
-378 170 0
-378 200 0
-378 365 -174 0
-378 -365 174 0
378 -170 365 174 -200 0
378 -170 -365 -174 -200 0
379 -377 0
-379 377 0
380 170 -377 0
380 -170 377 0
-380 170 377 0
-380 -170 -377 0
-381 170 0
-381 377 0
381 -170 -377 0
382 -170 380 0
-382 170 380 0
-383 380 0
382 -383 -170 0
-382 -383 170 0
382 383 170 -380 0
-382 383 -170 -380 0
-384 380 0
382 -384 170 0
-382 -384 -170 0
382 384 -170 -380 0
-382 384 170 -380 0
-385 382 0
-385 380 0
-385 -170 0
385 -382 170 -380 0
386 382 -380 0
386 -382 380 0
-386 382 380 0
-386 -382 -380 0
-387 382 0
-387 380 0
387 -382 -380 0
388 179 -376 0
388 -179 376 0
-388 179 376 0
-388 -179 -376 0
389 183 -200 0
389 -183 200 0
-389 183 200 0
-389 -183 -200 0
-390 179 0
-390 200 0
-390 376 -183 0
-390 -376 183 0
390 -179 376 183 -200 0
390 -179 -376 -183 -200 0
391 179 -389 0
391 -179 389 0
-391 179 389 0
-391 -179 -389 0
-392 179 0
-392 389 0
392 -179 -389 0
393 -179 391 0
-393 179 391 0
-394 391 0
393 -394 -179 0
-393 -394 179 0
393 394 179 -391 0
-393 394 -179 -391 0
-395 391 0
393 -395 179 0
-393 -395 -179 0
393 395 -179 -391 0
-393 395 179 -391 0
-396 393 0
-396 391 0
-396 -179 0
396 -393 179 -391 0
397 393 -391 0
397 -393 391 0
-397 393 391 0
-397 -393 -391 0
-398 393 0
-398 391 0
398 -393 -391 0
399 187 -388 0
399 -187 388 0
-399 187 388 0
-399 -187 -388 0
400 191 -200 0
400 -191 200 0
-400 191 200 0
-400 -191 -200 0
-401 187 0
-401 200 0
-401 388 -191 0
-401 -388 191 0
401 -187 388 191 -200 0
401 -187 -388 -191 -200 0
402 187 -400 0
402 -187 400 0
-402 187 400 0
-402 -187 -400 0
-403 187 0
-403 400 0
403 -187 -400 0
404 -187 402 0
-404 187 402 0
-405 402 0
404 -405 -187 0
-404 -405 187 0
404 405 187 -402 0
-404 405 -187 -402 0
-406 402 0
404 -406 187 0
-404 -406 -187 0
404 406 -187 -402 0
-404 406 187 -402 0
-407 404 0
-407 402 0
-407 -187 0
407 -404 187 -402 0
408 404 -402 0
408 -404 402 0
-408 404 402 0
-408 -404 -402 0
-409 404 0
-409 402 0
409 -404 -402 0
-208 0
-220 0
-224 0
-231 0
-235 0
-243 0
-247 0
-254 0
-258 0
-266 0
-270 0
-278 0
-282 0
-289 0
-293 0
-301 0
-305 0
-313 0
-317 0
-324 0
-328 0
-336 0
-340 0
-348 0
-352 0
-359 0
-363 0
-370 0
-374 0
-382 0
-386 0
-393 0
-397 0
-404 0
-408 0
-399 0
-200 0
